6942,6064,13050,20928,15156,19831,4950,2928,16488,17075,9863,16879,2038,14607,24031,18316,19301,14520,7099,20299,14010,17771,8793,8790,2533,15047,6280,17494,12110,21051,10497,2938,9956,24772,25864,21683,25952,17596,1998,20754,12757,21721,2657,23405,25539,6942